NAME          ClpDefau
ROWS
 N  OBJROW
 L  R_96_0
 L  R_96_1
 L  R_96_2
 L  R_96_3
 L  R_96_4
 L  R_96_5
 L  R_96_6
 L  R_96_7
 L  R_96_8
 L  R_96_9
 L  R_96_10
 L  R_96_11
 L  R_96_12
 L  R_96_13
 L  R_96_14
 L  R_96_15
COLUMNS
    x_0       OBJROW     -1.           R_96_1    8.          
    x_0       R_96_2    1.             R_96_4    6.          
    x_0       R_96_6    9.             R_96_7    3.          
    x_0       R_96_8    1.             R_96_9    3.          
    x_0       R_96_10   9.             R_96_11   9.          
    x_0       R_96_12   3.             R_96_14   7.          
    x_0       R_96_15   6.          
    x_1       OBJROW     -2.           R_96_0    6.          
    x_1       R_96_1    8.             R_96_2    7.          
    x_1       R_96_3    8.             R_96_4    4.          
    x_1       R_96_5    8.             R_96_6    6.          
    x_1       R_96_7    8.             R_96_9    10.         
    x_1       R_96_10   9.             R_96_11   8.          
    x_1       R_96_12   6.          
    x_2       OBJROW     -2.           R_96_0    8.          
    x_2       R_96_1    9.             R_96_2    9.          
    x_2       R_96_3    10.            R_96_4    4.          
    x_2       R_96_5    6.             R_96_7    2.          
    x_2       R_96_8    6.             R_96_9    4.          
    x_2       R_96_11   10.            R_96_12   5.          
    x_2       R_96_13   2.             R_96_14   3.          
    x_3       OBJROW     -6.           R_96_0    4.          
    x_3       R_96_2    1.             R_96_3    6.          
    x_3       R_96_4    1.             R_96_5    2.          
    x_3       R_96_6    1.             R_96_7    3.          
    x_3       R_96_9    3.             R_96_10   1.          
    x_3       R_96_11   1.             R_96_12   4.          
    x_3       R_96_13   1.             R_96_14   10.         
    x_3       R_96_15   2.          
    x_4       OBJROW     -3.           R_96_0    8.          
    x_4       R_96_1    8.             R_96_2    10.         
    x_4       R_96_3    5.             R_96_4    10.         
    x_4       R_96_5    8.             R_96_7    6.          
    x_4       R_96_9    3.             R_96_10   7.          
    x_4       R_96_11   6.             R_96_12   6.          
    x_4       R_96_13   10.            R_96_15   9.          
    x_5       OBJROW     -5.           R_96_1    5.          
    x_5       R_96_2    3.             R_96_3    8.          
    x_5       R_96_4    9.             R_96_6    1.          
    x_5       R_96_8    8.             R_96_9    2.          
    x_5       R_96_10   10.            R_96_11   10.         
    x_5       R_96_12   5.             R_96_13   5.          
    x_5       R_96_14   1.             R_96_15   7.          
    x_6       OBJROW     -5.           R_96_0    2.          
    x_6       R_96_1    2.             R_96_2    2.          
    x_6       R_96_3    4.             R_96_4    1.          
    x_6       R_96_5    8.             R_96_6    9.          
    x_6       R_96_7    4.             R_96_8    4.          
    x_6       R_96_9    7.             R_96_10   1.          
    x_6       R_96_11   1.             R_96_14   2.          
    x_6       R_96_15   8.          
    x_7       OBJROW     -10.          R_96_0    9.          
    x_7       R_96_2    6.             R_96_3    6.          
    x_7       R_96_4    7.             R_96_5    5.          
    x_7       R_96_6    1.             R_96_8    8.          
    x_7       R_96_9    10.            R_96_10   1.          
    x_7       R_96_11   6.             R_96_12   2.          
    x_7       R_96_13   8.             R_96_14   10.         
    x_7       R_96_15   8.          
    x_8       OBJROW     -4.           R_96_0    6.          
    x_8       R_96_1    2.             R_96_2    2.          
    x_8       R_96_3    6.             R_96_4    4.          
    x_8       R_96_5    1.             R_96_6    8.          
    x_8       R_96_7    8.             R_96_8    8.          
    x_8       R_96_9    6.             R_96_10   9.          
    x_8       R_96_12   7.             R_96_15   4.          
    x_9       OBJROW     -10.          R_96_0    10.         
    x_9       R_96_1    7.             R_96_2    2.          
    x_9       R_96_3    10.            R_96_4    6.          
    x_9       R_96_5    9.             R_96_6    7.          
    x_9       R_96_8    1.             R_96_9    5.          
    x_9       R_96_10   6.             R_96_11   9.          
    x_9       R_96_12   3.             R_96_13   7.          
    x_9       R_96_14   9.             R_96_15   9.          
    x_10      OBJROW     -1.           R_96_0    3.          
    x_10      R_96_1    4.             R_96_2    6.          
    x_10      R_96_3    10.            R_96_4    8.          
    x_10      R_96_5    1.             R_96_7    3.          
    x_10      R_96_8    1.             R_96_9    7.          
    x_10      R_96_10   7.             R_96_11   8.          
    x_10      R_96_12   9.             R_96_13   2.          
    x_10      R_96_14   4.             R_96_15   4.          
    x_11      OBJROW     -10.          R_96_0    7.          
    x_11      R_96_2    1.             R_96_3    9.          
    x_11      R_96_4    8.             R_96_5    2.          
    x_11      R_96_6    4.             R_96_7    10.         
    x_11      R_96_8    4.             R_96_10   9.          
    x_11      R_96_11   4.             R_96_12   10.         
    x_11      R_96_13   8.             R_96_15   10.         
    x_12      OBJROW     -3.           R_96_0    8.          
    x_12      R_96_1    10.            R_96_2    4.          
    x_12      R_96_4    6.             R_96_5    8.          
    x_12      R_96_6    2.             R_96_7    8.          
    x_12      R_96_10   9.             R_96_11   2.          
    x_12      R_96_12   6.             R_96_13   7.          
    x_12      R_96_14   3.             R_96_15   8.          
    x_13      OBJROW     -7.           R_96_0    8.          
    x_13      R_96_1    3.             R_96_2    9.          
    x_13      R_96_3    1.             R_96_4    9.          
    x_13      R_96_6    4.             R_96_8    3.          
    x_13      R_96_9    9.             R_96_10   5.          
    x_13      R_96_11   6.             R_96_12   5.          
    x_13      R_96_13   7.             R_96_14   2.          
    x_13      R_96_15   4.          
    x_14      OBJROW     -7.           R_96_0    9.          
    x_14      R_96_2    9.             R_96_3    5.          
    x_14      R_96_4    8.             R_96_5    9.          
    x_14      R_96_6    2.             R_96_7    7.          
    x_14      R_96_9    6.             R_96_10   8.          
    x_14      R_96_11   8.             R_96_12   5.          
    x_14      R_96_13   3.             R_96_15   4.          
    x_15      OBJROW     -9.           R_96_1    2.          
    x_15      R_96_3    6.             R_96_4    3.          
    x_15      R_96_5    4.             R_96_6    9.          
    x_15      R_96_7    7.             R_96_9    5.          
    x_15      R_96_12   6.             R_96_13   5.          
    x_15      R_96_14   2.             R_96_15   7.          
RHS
    RHS       R_96_0    77.            R_96_1    38.         
    RHS       R_96_2    49.            R_96_3    61.         
    RHS       R_96_4    72.            R_96_5    77.         
    RHS       R_96_6    27.            R_96_7    39.         
    RHS       R_96_8    56.            R_96_9    64.         
    RHS       R_96_10   32.            R_96_11   19.         
    RHS       R_96_12   29.            R_96_13   60.         
    RHS       R_96_14   37.            R_96_15   61.         
BOUNDS
 UI BOUND     x_0       10.         
 UI BOUND     x_1       10.         
 UI BOUND     x_2       10.         
 UI BOUND     x_3       10.         
 UI BOUND     x_4       10.         
 UI BOUND     x_5       10.         
 UI BOUND     x_6       10.         
 UI BOUND     x_7       10.         
 UI BOUND     x_8       10.         
 UI BOUND     x_9       10.         
 UI BOUND     x_10      10.         
 UI BOUND     x_11      10.         
 UI BOUND     x_12      10.         
 UI BOUND     x_13      10.         
 UI BOUND     x_14      10.         
 UI BOUND     x_15      10.         
ENDATA
